Route #1: 1 44 17 31 6 43 1
Route #2: 1 20 36 45 34 41 4 16 1
Route #3: 1 15 18 25 3 11 37 12 35 8 21 19 1
Route #4: 1 5 28 23 9 40 13 33 29 38 24 1
Route #5: 1 30 14 26 27 2 1
Route #6: 1 39 42 32 22 10 1
cost 718.0336032978871
